
Log started (V12.8.0.0) Thu Aug 30 12:43:43 2018

New value for time limit in seconds: 500
CPXPARAM_TimeLimit                               500
CPXPARAM_Emphasis_Numerical                      1
CPXPARAM_Parallel                                -1
CPXPARAM_Benders_Strategy                        3
CPXPARAM_MIP_Tolerances_Integrality              9.9999999999999995e-08
CPXPARAM_MIP_Pool_AbsGap                         0
Tried aggregator 4 times.
MIP Presolve eliminated 8254 rows and 3782 columns.
Aggregator did 1223 substitutions.
Reduced MIP has 2399 rows, 2463 columns, and 8920 nonzeros.
Reduced MIP has 25 binaries, 0 generals, 0 SOSs, and 0 indicators.
Presolve time = 0.01 sec. (15.09 ticks)
Found incumbent of value -6.000000 after 0.02 sec. (23.78 ticks)
Tried aggregator 1 time.
Reduced MIP has 2399 rows, 2463 columns, and 8920 nonzeros.
Reduced MIP has 25 binaries, 0 generals, 0 SOSs, and 0 indicators.
Presolve time = 0.00 sec. (2.46 ticks)

        Nodes                                         Cuts/
   Node  Left     Objective  IInf  Best Integer    Best Bound    ItCnt     Gap

      0     0        0.0000                       Benders: 10        0         
      0     0        0.0000                        Benders: 6        2         
      0     0        0.0000                        Benders: 1        5         
      0     0        0.0000                            0.0000        6         
Tried aggregator 1 time.
MIP Presolve eliminated 2 rows and 0 columns.
MIP Presolve modified 212 coefficients.
Reduced MIP has 16 rows, 35 columns, and 130 nonzeros.
Reduced MIP has 25 binaries, 0 generals, 0 SOSs, and 0 indicators.
Presolve time = 0.00 sec. (0.04 ticks)
Probing time = 0.00 sec. (0.01 ticks)
Tried aggregator 1 time.
Reduced MIP has 16 rows, 35 columns, and 130 nonzeros.
Reduced MIP has 25 binaries, 0 generals, 0 SOSs, and 0 indicators.
Presolve time = 0.00 sec. (0.03 ticks)
Probing time = 0.00 sec. (0.01 ticks)
MIP emphasis: balance optimality and feasibility.
MIP search method: dynamic search.
Parallel mode: opportunistic, using up to 8 threads.
Root relaxation solution time = 0.00 sec. (0.04 ticks)
*     0+    0                           -6.0000       -0.0000           100.00%
      0     0        0.0000     4       -6.0000       -0.0000       22  100.00%
      0     0        0.0000     5       -6.0000      Fract: 2       25  100.00%
      0     0        0.0000     5       -6.0000      Fract: 1       29  100.00%
      0     0        0.0000     6       -6.0000      Fract: 1       32  100.00%

Repeating presolve.
Tried aggregator 1 time.
Reduced MIP has 16 rows, 35 columns, and 130 nonzeros.
Reduced MIP has 25 binaries, 0 generals, 0 SOSs, and 0 indicators.
Presolve time = 0.00 sec. (0.03 ticks)
Probing time = 0.00 sec. (0.01 ticks)
Tried aggregator 1 time.
Reduced MIP has 16 rows, 35 columns, and 130 nonzeros.
Reduced MIP has 25 binaries, 0 generals, 0 SOSs, and 0 indicators.
Presolve time = 0.00 sec. (0.03 ticks)
Represolve time = 0.00 sec. (0.44 ticks)
Probing time = 0.00 sec. (0.01 ticks)
MIP emphasis: balance optimality and feasibility.
MIP search method: dynamic search.
Parallel mode: opportunistic, using up to 8 threads.
Root relaxation solution time = 0.00 sec. (0.12 ticks)
*     0+    0                           -6.0000       -0.0000           100.00%
      0     0        0.0000     8       -6.0000       -0.0000       54  100.00%
*     0+    0                           -5.5000       -0.0000           100.00%
      0     0        0.0000     6       -5.5000       Cuts: 2       61  100.00%
      0     0        0.0000     4       -5.5000       Cuts: 3       65  100.00%
      0     3       -0.2000     4       -5.5000       Cuts: 4       73  100.00%
Elapsed time = 0.36 sec. (308.46 ticks, tree = 0.01 MB, solutions = 1)
*    14+    2                           -5.5000       -0.0000           100.00%
*    42+    7                           -5.4000       -0.6000            88.89%
*    66+   24                           -5.4000       -0.6000            88.89%
   1217   314       -3.7213     1       -3.7228       -3.1742     5517   14.74%

Benders cuts applied:  578
Gomory fractional cuts applied:  1

Root node processing (before b&c):
  Real time             =    0.33 sec. (307.81 ticks)
Parallel b&c, 8 threads:
  Real time             =    0.43 sec. (293.14 ticks)
  Sync time (average)   =    0.00 sec.
  Wait time (average)   =    0.00 sec.
                          ------------
Total (root+branch&cut) =    0.76 sec. (600.96 ticks)

Solution pool: 1 solution saved.

MIP - Integer optimal solution:  Objective = -3.7228017531e+00
Solution time =    0.76 sec.  Iterations = 10241  Nodes = 1946 (1)
Deterministic time = 601.54 ticks  (786.33 ticks/sec)


Solution pool written to file 'ngp_a9_b0_n2.sol'.
Current MIP best bound = -3.7228017531e+00 (gap = -0, 0.00%)
